50
16185

243 689
53 481
119 556
447 364
152 482
321 230
561 629
284 588
324 683
273 873
433 664
271 177
33 864
521 405
61 990
828 618
544 318
396 783
418 970
406 24
271 802
441 231
113 472
341 892
33 455
649 303
493 611
916 613
916 686
965 988
636 33
848 744
51 564
565 256
212 498
433 790
818 737
456 632
777 261
579 393
971 609
462 465
245 771
800 745
269 3
162 39
975 868
223 153
179 636
768 464
